c Result of efficient AIG-to-CNF conversion using package CNF
p cnf 307 1025
-2 3 136 0
-2 -3 -136 0
2 -3 136 0
2 3 -136 0
-3 4 120 0
-3 -4 -120 0
3 -4 120 0
3 4 -120 0
-4 5 37 0
-4 -5 -37 0
4 -5 37 0
4 5 -37 0
-5 -6 -29 0
-5 6 29 0
5 6 -29 0
5 -6 29 0
-6 7 21 0
-6 -7 -21 0
6 -7 21 0
6 7 -21 0
-7 8 18 0
-7 -8 -18 0
7 -8 18 0
7 8 -18 0
-8 9 14 0
-8 -9 -14 0
8 -9 14 0
8 9 -14 0
-9 -10 -13 0
-9 10 13 0
9 10 -13 0
9 -10 13 0
-10 -11 -12 0
-10 11 12 0
10 11 -12 0
10 -11 12 0
11 -267 -300 0
-11 267 0
-11 300 0
12 -280 -285 0
-12 280 0
-12 285 0
13 -277 -279 0
-13 277 0
-13 279 0
-14 15 17 0
-14 16 17 0
-14 15 16 0
14 -15 -16 0
14 -16 -17 0
14 -15 -17 0
15 -267 -280 0
-15 267 0
-15 280 0
16 -279 -285 0
-16 279 0
-16 285 0
17 -272 -277 0
-17 272 0
-17 277 0
-18 -19 -20 0
-18 19 20 0
18 19 -20 0
18 -19 20 0
19 -272 -278 0
-19 272 0
-19 278 0
20 -270 -275 0
-20 270 0
-20 275 0
-21 22 24 0
-21 24 28 0
-21 22 28 0
21 -24 -28 0
21 -22 -24 0
21 -22 -28 0
-22 17 23 0
-22 -17 -23 0
22 -17 23 0
22 17 -23 0
-23 -15 -16 0
-23 15 16 0
23 15 -16 0
23 -15 16 0
-24 25 27 0
-24 26 27 0
-24 25 26 0
24 -25 -26 0
24 -26 -27 0
24 -25 -27 0
25 -267 -279 0
-25 267 0
-25 279 0
26 -272 -285 0
-26 272 0
-26 285 0
27 -270 -277 0
-27 270 0
-27 277 0
28 -270 -278 0
-28 270 0
-28 278 0
29 -30 -32 0
-29 30 0
-29 32 0
-30 28 31 0
-30 -28 -31 0
30 -28 31 0
30 28 -31 0
-31 22 24 0
-31 -22 -24 0
31 -22 24 0
31 22 -24 0
32 -33 -35 0
-32 33 0
-32 35 0
-33 27 34 0
-33 -27 -34 0
33 -27 34 0
33 27 -34 0
-34 -25 -26 0
-34 25 26 0
34 25 -26 0
34 -25 26 0
35 -270 -285 -36 0
-35 270 0
-35 285 0
-35 36 0
36 -267 -272 0
-36 267 0
-36 272 0
-37 38 103 0
-37 -38 -103 0
37 -38 103 0
37 38 -103 0
-38 39 71 0
-38 -39 -71 0
38 -39 71 0
38 39 -71 0
-39 -40 -63 0
-39 40 63 0
39 40 -63 0
39 -40 63 0
-40 41 55 0
-40 -41 -55 0
40 -41 55 0
40 41 -55 0
-41 42 52 0
-41 -42 -52 0
41 -42 52 0
41 42 -52 0
-42 43 48 0
-42 -43 -48 0
42 -43 48 0
42 43 -48 0
-43 -44 -47 0
-43 44 47 0
43 44 -47 0
43 -44 47 0
-44 -45 -46 0
-44 45 46 0
44 45 -46 0
44 -45 46 0
45 -273 -291 0
-45 273 0
-45 291 0
46 -292 -306 0
-46 292 0
-46 306 0
47 -281 -293 0
-47 281 0
-47 293 0
-48 49 51 0
-48 50 51 0
-48 49 50 0
48 -49 -50 0
48 -50 -51 0
48 -49 -51 0
49 -291 -306 0
-49 291 0
-49 306 0
50 -281 -292 0
-50 281 0
-50 292 0
51 -293 -294 0
-51 293 0
-51 294 0
-52 -53 -54 0
-52 53 54 0
52 53 -54 0
52 -53 54 0
53 -294 -295 0
-53 294 0
-53 295 0
54 -296 -305 0
-54 296 0
-54 305 0
-55 56 58 0
-55 58 62 0
-55 56 62 0
55 -58 -62 0
55 -56 -58 0
55 -56 -62 0
-56 51 57 0
-56 -51 -57 0
56 -51 57 0
56 51 -57 0
-57 -49 -50 0
-57 49 50 0
57 49 -50 0
57 -49 50 0
-58 59 61 0
-58 60 61 0
-58 59 60 0
58 -59 -60 0
58 -60 -61 0
58 -59 -61 0
59 -281 -291 0
-59 281 0
-59 291 0
60 -292 -294 0
-60 292 0
-60 294 0
61 -293 -305 0
-61 293 0
-61 305 0
62 -295 -305 0
-62 295 0
-62 305 0
63 -64 -66 0
-63 64 0
-63 66 0
-64 62 65 0
-64 -62 -65 0
64 -62 65 0
64 62 -65 0
-65 56 58 0
-65 -56 -58 0
65 -56 58 0
65 56 -58 0
66 -67 -69 0
-66 67 0
-66 69 0
-67 61 68 0
-67 -61 -68 0
67 -61 68 0
67 61 -68 0
-68 -59 -60 0
-68 59 60 0
68 59 -60 0
68 -59 60 0
69 -292 -305 -70 0
-69 292 0
-69 305 0
-69 70 0
70 -291 -294 0
-70 291 0
-70 294 0
-71 -72 -95 0
-71 72 95 0
71 72 -95 0
71 -72 95 0
-72 73 87 0
-72 -73 -87 0
72 -73 87 0
72 73 -87 0
-73 74 84 0
-73 -74 -84 0
73 -74 84 0
73 74 -84 0
-74 75 80 0
-74 -75 -80 0
74 -75 80 0
74 75 -80 0
-75 -76 -79 0
-75 76 79 0
75 76 -79 0
75 -76 79 0
-76 -77 -78 0
-76 77 78 0
76 77 -78 0
76 -77 78 0
77 -264 -265 0
-77 264 0
-77 265 0
78 -262 -263 0
-78 262 0
-78 263 0
79 -260 -261 0
-79 260 0
-79 261 0
-80 81 83 0
-80 82 83 0
-80 81 82 0
80 -81 -82 0
80 -82 -83 0
80 -81 -83 0
81 -263 -264 0
-81 263 0
-81 264 0
82 -261 -262 0
-82 261 0
-82 262 0
83 -260 -266 0
-83 260 0
-83 266 0
-84 -85 -86 0
-84 85 86 0
84 85 -86 0
84 -85 86 0
85 -259 -266 0
-85 259 0
-85 266 0
86 -258 -289 0
-86 258 0
-86 289 0
-87 88 90 0
-87 90 94 0
-87 88 94 0
87 -90 -94 0
87 -88 -90 0
87 -88 -94 0
-88 83 89 0
-88 -83 -89 0
88 -83 89 0
88 83 -89 0
-89 -81 -82 0
-89 81 82 0
89 81 -82 0
89 -81 82 0
-90 91 93 0
-90 92 93 0
-90 91 92 0
90 -91 -92 0
90 -92 -93 0
90 -91 -93 0
91 -261 -264 0
-91 261 0
-91 264 0
92 -262 -266 0
-92 262 0
-92 266 0
93 -258 -260 0
-93 258 0
-93 260 0
94 -258 -259 0
-94 258 0
-94 259 0
95 -96 -98 0
-95 96 0
-95 98 0
-96 94 97 0
-96 -94 -97 0
96 -94 97 0
96 94 -97 0
-97 88 90 0
-97 -88 -90 0
97 -88 90 0
97 88 -90 0
98 -99 -101 0
-98 99 0
-98 101 0
-99 93 100 0
-99 -93 -100 0
99 -93 100 0
99 93 -100 0
-100 -91 -92 0
-100 91 92 0
100 91 -92 0
100 -91 92 0
101 -258 -262 -102 0
-101 258 0
-101 262 0
-101 102 0
102 -264 -266 0
-102 264 0
-102 266 0
-103 104 107 0
-103 107 111 0
-103 107 112 0
103 -107 0
103 -104 -111 -112 0
-104 105 106 0
-104 -105 -106 0
104 -105 106 0
104 105 -106 0
-105 -64 -66 0
-105 64 66 0
105 64 -66 0
105 -64 66 0
-106 -96 -98 0
-106 96 98 0
106 96 -98 0
106 -96 98 0
-107 105 106 0
-107 106 108 0
-107 105 108 0
107 -106 -108 0
107 -105 -106 0
107 -105 -108 0
108 -109 -110 0
-108 109 0
-108 110 0
-109 -67 -69 0
-109 67 69 0
109 67 -69 0
109 -67 69 0
-110 -99 -101 0
-110 99 101 0
110 99 -101 0
110 -99 101 0
-111 109 110 0
-111 -109 -110 0
111 -109 110 0
111 109 -110 0
-112 113 115 0
-112 115 117 0
-112 113 117 0
112 -115 -117 0
112 -113 -115 0
112 -113 -117 0
-113 -70 -114 0
-113 70 114 0
113 70 -114 0
113 -70 114 0
114 -292 -305 0
-114 292 0
-114 305 0
-115 -102 -116 0
-115 102 116 0
115 102 -116 0
115 -102 116 0
116 -258 -262 0
-116 258 0
-116 262 0
117 -118 -119 0
-117 118 0
-117 119 0
118 -291 -305 0
-118 291 0
-118 305 0
119 -258 -264 0
-119 258 0
-119 264 0
-120 121 122 127 0
-120 121 124 127 0
-120 122 124 127 0
120 -122 -124 0
120 -121 -122 0
120 -127 0
120 -121 -124 0
-121 -30 -32 0
-121 30 32 0
121 30 -32 0
121 -30 32 0
-122 104 123 0
-122 -104 -123 0
122 -104 123 0
122 104 -123 0
-123 108 111 0
-123 108 112 0
123 -108 0
123 -111 -112 0
124 -125 -126 0
-124 125 0
-124 126 0
-125 -33 -35 0
-125 33 35 0
125 33 -35 0
125 -33 35 0
-126 111 112 0
-126 -111 -112 0
126 -111 112 0
126 111 -112 0
127 -128 -125 126 -129 0
127 -128 125 -126 -129 0
-127 129 0
-127 125 126 0
-127 128 0
-127 -125 -126 0
-128 121 122 0
-128 -121 -122 0
128 -121 122 0
128 121 -122 0
-129 130 132 0
-129 132 134 0
-129 130 134 0
129 -132 -134 0
129 -130 -132 0
129 -130 -134 0
-130 -36 -131 0
-130 36 131 0
130 36 -131 0
130 -36 131 0
131 -270 -285 0
-131 270 0
-131 285 0
-132 -133 -117 0
-132 133 117 0
132 133 -117 0
132 -133 117 0
-133 113 115 0
-133 -113 -115 0
133 -113 115 0
133 113 -115 0
134 118 -119 -135 0
134 -118 119 -135 0
-134 135 0
-134 118 119 0
-134 -118 -119 0
135 -267 -270 0
-135 267 0
-135 270 0
-136 137 225 0
-136 -137 -225 0
136 -137 225 0
136 137 -225 0
-137 138 190 0
-137 -138 -190 0
137 -138 190 0
137 138 -190 0
-138 139 156 0
-138 156 173 0
-138 139 173 0
138 -139 -173 0
138 -156 -173 0
138 -139 -156 0
-139 140 150 0
-139 -140 -150 0
139 -140 150 0
139 140 -150 0
-140 -141 -148 0
-140 141 148 0
140 141 -148 0
140 -141 148 0
-141 142 144 0
-141 -142 -144 0
141 -142 144 0
141 142 -144 0
-142 262 143 0
-142 -262 -143 0
142 -262 143 0
142 262 -143 0
-143 262 264 0
-143 263 -264 0
-143 261 264 0
143 -263 -264 0
143 -261 -262 264 0
-144 259 145 0
-144 -259 -145 0
144 -259 145 0
144 259 -145 0
-145 146 147 0
-145 258 266 0
-145 266 147 0
-145 258 146 0
145 -266 -146 0
145 -258 -147 0
146 260 -262 0
146 -260 262 0
-146 -260 -262 0
-146 260 262 0
-147 -260 262 0
-147 -259 -262 0
-147 259 260 0
147 259 -260 -262 0
147 -259 260 262 0
148 -259 149 0
-148 259 0
-148 -149 0
149 -258 -146 0
-149 258 0
-149 146 0
-150 151 154 0
-150 151 155 0
150 -151 0
150 -154 -155 0
151 -149 -152 0
-151 149 0
-151 152 0
-152 262 153 0
-152 -262 -153 0
152 -262 153 0
152 262 -153 0
-153 264 266 0
-153 261 -264 0
-153 262 264 0
153 -261 -264 0
153 -262 264 -266 0
-154 149 152 0
-154 -149 -152 0
154 -149 152 0
154 149 -152 0
155 258 -262 102 0
-155 -258 0
-155 262 0
-155 -102 0
-156 157 167 0
-156 -157 -167 0
156 -157 167 0
156 157 -167 0
-157 -158 -165 0
-157 158 165 0
157 158 -165 0
157 -158 165 0
-158 159 161 0
-158 -159 -161 0
158 -159 161 0
158 159 -161 0
-159 292 160 0
-159 -292 -160 0
159 -292 160 0
159 292 -160 0
-160 291 292 0
-160 -291 306 0
-160 281 291 0
160 -291 -306 0
160 -281 291 -292 0
-161 295 162 0
-161 -295 -162 0
161 -295 162 0
161 295 -162 0
-162 163 164 0
-162 294 305 0
-162 294 164 0
-162 305 163 0
162 -294 -163 0
162 -305 -164 0
163 292 -293 0
163 -292 293 0
-163 -292 -293 0
-163 292 293 0
-164 -292 -295 0
-164 293 295 0
-164 292 -293 0
164 -292 -293 295 0
164 292 293 -295 0
165 -295 166 0
-165 295 0
-165 -166 0
166 -305 -163 0
-166 305 0
-166 163 0
-167 168 171 0
-167 168 172 0
167 -168 0
167 -171 -172 0
168 -166 -169 0
-168 166 0
-168 169 0
-169 292 170 0
-169 -292 -170 0
169 -292 170 0
169 292 -170 0
-170 291 294 0
-170 281 -291 0
-170 291 292 0
170 -281 -291 0
170 291 -292 -294 0
-171 166 169 0
-171 -166 -169 0
171 -166 169 0
171 166 -169 0
172 -292 305 70 0
-172 292 0
-172 -70 0
-172 -305 0
-173 174 184 0
-173 -174 -184 0
173 -174 184 0
173 174 -184 0
-174 -175 -182 0
-174 175 182 0
174 175 -182 0
174 -175 182 0
-175 176 178 0
-175 -176 -178 0
175 -176 178 0
175 176 -178 0
-176 285 177 0
-176 -285 -177 0
176 -285 177 0
176 285 -177 0
-177 -267 280 0
-177 267 279 0
-177 267 285 0
177 -267 -280 0
177 267 -279 -285 0
-178 278 179 0
-178 -278 -179 0
178 -278 179 0
178 278 -179 0
-179 180 181 0
-179 270 272 0
-179 272 181 0
-179 270 180 0
179 -272 -180 0
179 -270 -181 0
180 277 -285 0
180 -277 285 0
-180 -277 -285 0
-180 277 285 0
-181 -277 -278 0
-181 278 285 0
-181 277 -285 0
181 277 -278 285 0
181 -277 278 -285 0
182 -278 183 0
-182 278 0
-182 -183 0
183 -270 -180 0
-183 270 0
-183 180 0
-184 185 188 0
-184 185 189 0
184 -185 0
184 -188 -189 0
185 -183 -186 0
-185 183 0
-185 186 0
-186 285 187 0
-186 -285 -187 0
186 -285 187 0
186 285 -187 0
-187 -267 279 0
-187 267 272 0
-187 267 285 0
187 -267 -279 0
187 267 -272 -285 0
-188 183 186 0
-188 -183 -186 0
188 -183 186 0
188 183 -186 0
189 270 -285 36 0
-189 -270 0
-189 285 0
-189 -36 0
-190 191 214 0
-190 -191 -214 0
190 -191 214 0
190 191 -214 0
-191 192 203 0
-191 -192 -203 0
191 -192 203 0
191 192 -203 0
-192 193 202 0
-192 -193 -202 0
192 -193 202 0
192 193 -202 0
-193 194 195 0
-193 -194 -195 0
193 -194 195 0
193 194 -195 0
-194 259 142 0
-194 142 144 0
-194 259 144 0
-194 144 -149 0
-194 142 -149 0
194 -142 -144 0
194 -259 -142 149 0
194 -259 -144 149 0
-195 -196 -201 0
-195 196 201 0
195 196 -201 0
195 -196 201 0
-196 197 199 0
-196 -197 -199 0
196 -197 199 0
196 197 -199 0
-197 262 198 0
-197 -262 -198 0
197 -262 198 0
197 262 -198 0
-198 262 264 0
-198 -264 265 0
-198 263 264 0
198 -264 -265 0
198 -262 -263 264 0
-199 259 200 0
-199 -259 -200 0
199 -259 200 0
199 259 -200 0
-200 146 147 0
-200 261 266 0
-200 261 147 0
-200 266 146 0
200 -261 -146 0
200 -266 -147 0
201 -258 259 -289 0
201 -258 -259 289 0
-201 258 0
-201 -259 -289 0
-201 259 289 0
-202 140 0
-202 151 155 0
-202 151 154 0
202 -140 -151 0
202 -140 -154 -155 0
-203 204 213 0
-203 -204 -213 0
203 -204 213 0
203 204 -213 0
-204 205 206 0
-204 -205 -206 0
204 -205 206 0
204 205 -206 0
-205 159 161 0
-205 161 165 0
-205 159 165 0
205 -161 -165 0
205 -159 -161 0
205 -159 -165 0
-206 -207 -212 0
-206 207 212 0
206 207 -212 0
206 -207 212 0
-207 208 210 0
-207 -208 -210 0
207 -208 210 0
207 208 -210 0
-208 292 209 0
-208 -292 -209 0
208 -292 209 0
208 292 -209 0
-209 291 306 0
-209 273 -291 0
-209 291 292 0
209 -273 -291 0
209 291 -292 -306 0
-210 295 211 0
-210 -295 -211 0
210 -295 211 0
210 295 -211 0
-211 163 164 0
-211 281 294 0
-211 281 164 0
-211 294 163 0
211 -281 -163 0
211 -294 -164 0
212 295 -296 -305 0
212 -295 296 -305 0
-212 305 0
-212 295 296 0
-212 -295 -296 0
-213 157 0
-213 168 172 0
-213 168 171 0
213 -157 -168 0
213 -157 -171 -172 0
-214 215 224 0
-214 -215 -224 0
214 -215 224 0
214 215 -224 0
-215 216 217 0
-215 -216 -217 0
215 -216 217 0
215 216 -217 0
-216 176 178 0
-216 178 182 0
-216 176 182 0
216 -178 -182 0
216 -176 -178 0
216 -176 -182 0
-217 -218 -223 0
-217 218 223 0
217 218 -223 0
217 -218 223 0
-218 219 221 0
-218 -219 -221 0
218 -219 221 0
218 219 -221 0
-219 285 220 0
-219 -285 -220 0
219 -285 220 0
219 285 -220 0
-220 -267 300 0
-220 267 285 0
-220 267 280 0
220 -267 -300 0
220 267 -280 -285 0
-221 278 222 0
-221 -278 -222 0
221 -278 222 0
221 278 -222 0
-222 180 181 0
-222 272 279 0
-222 279 181 0
-222 272 180 0
222 -279 -180 0
222 -272 -181 0
223 -270 275 -278 0
223 -270 -275 278 0
-223 270 0
-223 -275 -278 0
-223 275 278 0
-224 174 0
-224 185 189 0
-224 185 188 0
224 -174 -185 0
224 -174 -188 -189 0
-225 226 230 248 0
-225 226 232 248 0
-225 230 232 248 0
225 -230 -232 0
225 -226 -230 0
225 -248 0
225 -226 -232 0
-226 227 228 0
-226 228 229 0
-226 227 229 0
226 -227 -229 0
226 -228 -229 0
226 -227 -228 0
-227 -154 -155 0
-227 154 155 0
227 154 -155 0
227 -154 155 0
-228 -171 -172 0
-228 171 172 0
228 171 -172 0
228 -171 172 0
-229 -188 -189 0
-229 188 189 0
229 188 -189 0
229 -188 189 0
-230 173 231 0
-230 -173 -231 0
230 -173 231 0
230 173 -231 0
-231 139 156 0
-231 -139 -156 0
231 -139 156 0
231 139 -156 0
232 -233 -246 0
-232 233 0
-232 246 0
-233 234 238 0
-233 238 242 0
-233 234 242 0
233 -234 -242 0
233 -238 -242 0
233 -234 -238 0
-234 -235 -237 0
-234 235 237 0
234 235 -237 0
234 -235 237 0
-235 262 236 0
-235 -262 -236 0
235 -262 236 0
235 262 -236 0
-236 258 264 0
-236 -264 266 0
-236 262 264 0
236 -264 -266 0
236 -258 -262 264 0
237 -262 119 0
-237 262 0
-237 -119 0
-238 -239 -241 0
-238 239 241 0
238 239 -241 0
238 -239 241 0
-239 292 240 0
-239 -292 -240 0
239 -292 240 0
239 292 -240 0
-240 -291 294 0
-240 291 292 0
-240 291 305 0
240 -291 -294 0
240 291 -292 -305 0
241 -292 118 0
-241 292 0
-241 -118 0
-242 -243 -245 0
-242 243 245 0
242 243 -245 0
242 -243 245 0
-243 285 244 0
-243 -285 -244 0
243 -285 244 0
243 285 -244 0
-244 -267 272 0
-244 267 270 0
-244 267 285 0
244 -267 -272 0
244 267 -270 -285 0
245 -285 135 0
-245 285 0
-245 -135 0
-246 229 247 0
-246 -229 -247 0
246 -229 247 0
246 229 -247 0
-247 227 228 0
-247 -227 -228 0
247 -227 228 0
247 227 -228 0
248 -249 233 -246 -250 0
248 -249 -233 246 -250 0
-248 250 0
-248 233 246 0
-248 249 0
-248 -233 -246 0
-249 226 230 0
-249 -226 -230 0
249 -226 230 0
249 226 -230 0
250 -118 -135 -251 0
250 -118 -119 -251 0
250 -119 -135 -251 0
-250 118 135 0
-250 119 135 0
-250 251 0
-250 118 119 0
-251 242 252 0
-251 -242 -252 0
251 -242 252 0
251 242 -252 0
-252 234 238 0
-252 -234 -238 0
252 -234 238 0
252 234 -238 0
-307 0
2 0

